Tried aggregator 2 times.
MIP Presolve eliminated 6 rows and 4 columns.
MIP Presolve modified 18 coefficients.
Aggregator did 18 substitutions.
Reduced MIP has 66 rows, 61 columns, and 156 nonzeros.
Reduced MIP has 36 binaries, 7 generals, 0 SOSs, and 0 indicators.
Presolve time = 0.00 sec. (0.13 ticks)
Found incumbent of value 3.000000 after 0.00 sec. (0.24 ticks)
Probing fixed 9 vars, tightened 12 bounds.
Probing time = 0.00 sec. (0.07 ticks)
Tried aggregator 3 times.
MIP Presolve eliminated 15 rows and 14 columns.
MIP Presolve modified 10 coefficients.
Aggregator did 21 substitutions.
Reduced MIP has 30 rows, 26 columns, and 75 nonzeros.
Reduced MIP has 19 binaries, 7 generals, 0 SOSs, and 0 indicators.
Presolve time = 0.00 sec. (0.20 ticks)
Probing time = 0.00 sec. (0.02 ticks)
Tried aggregator 1 time.
Reduced MIP has 30 rows, 26 columns, and 75 nonzeros.
Reduced MIP has 19 binaries, 7 generals, 0 SOSs, and 0 indicators.
Presolve time = 0.00 sec. (0.04 ticks)
Probing time = 0.00 sec. (0.02 ticks)
Clique table members: 14.
MIP emphasis: balance optimality and feasibility.
MIP search method: dynamic search.
Parallel mode: deterministic, using up to 4 threads.
Root relaxation solution time = 0.00 sec. (0.04 ticks)

        Nodes                                         Cuts/
   Node  Left     Objective  IInf  Best Integer    Best Bound    ItCnt     Gap

*     0+    0                            3.0000        1.0000       12   66.67%
*     0+    0                            2.0000        1.0000       12   50.00%
      0     0        1.0000    12        2.0000        1.0000       12   50.00%
*     0     0      integral     0        1.0000        1.0000       17    0.00%
Elapsed time = 0.01 sec. (0.88 ticks, tree = 0.00 MB, solutions = 3)

Root node processing (before b&c):
  Real time             =    0.01 sec. (0.88 ticks)
Parallel b&c, 4 threads:
  Real time             =    0.00 sec. (0.00 ticks)
  Sync time (average)   =    0.00 sec.
  Wait time (average)   =    0.00 sec.
                          ------------
Total (root+branch&cut) =    0.01 sec. (0.88 ticks)
